c 205_4_checker_6cl.cnf
c
c field = 205
c formula set type = 4_checker_6cl
c
p cnf 6 16
400 
402 
404 
406 
-398 
-410 
401 
403 
405 
407 
-399 
-411 
402 
404 
406 
410 
-400 
-412 
403 
405 
407 
411 
-401 
-413 
404 
406 
410 
412 
-402 
-414 
405 
407 
411 
413 
-403 
-415 
406 
410 
412 
414 
-404 
-416 
407 
411 
413 
415 
-405 
-417 
410 
412 
414 
416 
-406 
-418 
411 
413 
415 
417 
-407 
-419 
288 
318 
348 
378 
-258 
-438 
289 
319 
349 
379 
-259 
-439 
280 
312 
344 
376 
-248 
-440 
281 
313 
345 
377 
-249 
-441 
296 
324 
352 
380 
-268 
-436 
297 
325 
353 
381 
-269 
-437 
